Test: fpga10_9_sat.cnf
Options: -no-inverting-opt -activity-nl-freq=1
WARNING: for repeatability, setting FPU to use double precision
============================[ Problem Statistics ]=============================
|                                                                             |
|  Number of symmetries:           23                                         |
|  Number of invertingSyms:         0                                         |
|  Number of variables:           135                                         |
|  Number of clauses:             549                                         |
|  Parse time:                   0.00 s                                       |
|                                                                             |
============================[ Search Statistics ]==============================
| Conflicts |          ORIGINAL         |          LEARNT          | Progress |
|           |    Vars  Clauses Literals |    Limit  Clauses Lit/Cl |          |
===============================================================================
|       100 |     135      549     1485 |      201      226     28 |  0.006 % |
===============================================================================
restarts              : 2
conflicts             : 108            (inf /sec)
symconflicts          : 53             (inf /sec)
decisions             : 291            (0.00 % random) (inf /sec)
propagations          : 1640           (inf /sec)
sympropagations       : 134            (inf /sec)
conflict literals     : 2822           (1.19 % deleted)
literals     : 2822           (1.19 % deleted)

HEURISTIC USAGES
random                : 0           
activity w/ lookahead : 0           
activity no lookahead : 290         
original sp           : 0           
sym count             : 0           

Memory used           : 5.00 MB
CPU time              : 0 s

SATISFIABLE
